NAME: instance_947
TYPE: TSP
DIMENSION: 20
EDGE_WEIGHT_TYPE: EUC_2D
NODE_COORD_SECTION
0 65.41 43.41
1 57.97 73.56
2 10.56 95.15
3 68.59 40.54
4 67.80 41.33
5 32.07 43.90
6 38.89 36.50
7 49.17 3.25
8 27.10 27.30
9 72.69 94.25
10 78.26 20.70
11 62.86 81.26
12 39.17 52.04
13 61.30 95.36
14 14.69 65.14
15 95.14 89.29
16 27.60 0.33
17 64.63 79.54
18 68.03 59.62
19 39.21 46.05
EOF
